p cnf 362 1812
-1 -251 0
-1 -252 0
-1 -253 0
-2 251 0
-2 -252 0
-2 -253 0
-3 -251 0
-3 252 0
-3 -253 0
-4 251 0
-4 252 0
-4 -253 0
-5 -251 0
-5 -252 0
-5 253 0
1 2 3 4 5 0
-1 36 0
-1 6 0
-2 37 0
-2 7 0
-3 38 0
-3 8 0
-4 39 0
-4 9 0
-5 40 0
-5 10 0
-6 -254 0
-6 -255 0
-6 -256 0
-7 254 0
-7 -255 0
-7 -256 0
-8 -254 0
-8 255 0
-8 -256 0
-9 254 0
-9 255 0
-9 -256 0
-10 -254 0
-10 -255 0
-10 256 0
6 7 8 9 10 0
-6 1 11 0
-6 1 41 0
-6 11 41 0
-7 2 12 0
-7 2 42 0
-7 12 42 0
-8 3 13 0
-8 3 43 0
-8 13 43 0
-9 4 14 0
-9 4 44 0
-9 14 44 0
-10 5 15 0
-10 5 45 0
-10 15 45 0
-6 -1 -11 -41 0
-7 -2 -12 -42 0
-8 -3 -13 -43 0
-9 -4 -14 -44 0
-10 -5 -15 -45 0
-11 -257 0
-11 -258 0
-11 -259 0
-12 257 0
-12 -258 0
-12 -259 0
-13 -257 0
-13 258 0
-13 -259 0
-14 257 0
-14 258 0
-14 -259 0
-15 -257 0
-15 -258 0
-15 259 0
11 12 13 14 15 0
-11 6 16 0
-11 6 46 0
-11 16 46 0
-12 7 17 0
-12 7 47 0
-12 17 47 0
-13 8 18 0
-13 8 48 0
-13 18 48 0
-14 9 19 0
-14 9 49 0
-14 19 49 0
-15 10 20 0
-15 10 50 0
-15 20 50 0
-11 -6 -16 -46 0
-12 -7 -17 -47 0
-13 -8 -18 -48 0
-14 -9 -19 -49 0
-15 -10 -20 -50 0
-16 -260 0
-16 -261 0
-16 -262 0
-17 260 0
-17 -261 0
-17 -262 0
-18 -260 0
-18 261 0
-18 -262 0
-19 260 0
-19 261 0
-19 -262 0
-20 -260 0
-20 -261 0
-20 262 0
16 17 18 19 20 0
-16 11 21 0
-16 11 51 0
-16 21 51 0
-17 12 22 0
-17 12 52 0
-17 22 52 0
-18 13 23 0
-18 13 53 0
-18 23 53 0
-19 14 24 0
-19 14 54 0
-19 24 54 0
-20 15 25 0
-20 15 55 0
-20 25 55 0
-16 -11 -21 -51 0
-17 -12 -22 -52 0
-18 -13 -23 -53 0
-19 -14 -24 -54 0
-20 -15 -25 -55 0
21 0
-22 0
-23 0
-24 0
-25 0
16 26 56 0
-16 -26 0
-16 -56 0
-26 -56 0
-26 -266 0
-26 -267 0
-26 -268 0
-27 266 0
-27 -267 0
-27 -268 0
-28 -266 0
-28 267 0
-28 -268 0
-29 266 0
-29 267 0
-29 -268 0
-30 -266 0
-30 -267 0
-30 268 0
26 27 28 29 30 0
-26 21 31 0
-26 21 61 0
-26 31 61 0
-27 22 32 0
-27 22 62 0
-27 32 62 0
-28 23 33 0
-28 23 63 0
-28 33 63 0
-29 24 34 0
-29 24 64 0
-29 34 64 0
-30 25 35 0
-30 25 65 0
-30 35 65 0
-26 -21 -31 -61 0
-27 -22 -32 -62 0
-28 -23 -33 -63 0
-29 -24 -34 -64 0
-30 -25 -35 -65 0
-31 -269 0
-31 -270 0
-31 -271 0
-32 269 0
-32 -270 0
-32 -271 0
-33 -269 0
-33 270 0
-33 -271 0
-34 269 0
-34 270 0
-34 -271 0
-35 -269 0
-35 -270 0
-35 271 0
31 32 33 34 35 0
-31 66 0
-31 26 0
-32 67 0
-32 27 0
-33 68 0
-33 28 0
-34 69 0
-34 29 0
-35 70 0
-35 30 0
-36 -272 0
-36 -273 0
-36 -274 0
-37 272 0
-37 -273 0
-37 -274 0
-38 -272 0
-38 273 0
-38 -274 0
-39 272 0
-39 273 0
-39 -274 0
-40 -272 0
-40 -273 0
-40 274 0
36 37 38 39 40 0
-36 71 41 0
-36 71 1 0
-36 41 1 0
-37 72 42 0
-37 72 2 0
-37 42 2 0
-38 73 43 0
-38 73 3 0
-38 43 3 0
-39 74 44 0
-39 74 4 0
-39 44 4 0
-40 75 45 0
-40 75 5 0
-40 45 5 0
-36 -71 -41 -1 0
-37 -72 -42 -2 0
-38 -73 -43 -3 0
-39 -74 -44 -4 0
-40 -75 -45 -5 0
42 0
-41 0
-43 0
-44 0
-45 0
77 47 7 37 0
-77 -47 0
-77 -7 0
-77 -37 0
-47 -7 0
-47 -37 0
-7 -37 0
-46 -278 0
-46 -279 0
-46 -280 0
-47 278 0
-47 -279 0
-47 -280 0
-48 -278 0
-48 279 0
-48 -280 0
-49 278 0
-49 279 0
-49 -280 0
-50 -278 0
-50 -279 0
-50 280 0
46 47 48 49 50 0
-46 81 51 11 0
-46 81 51 41 0
-46 81 11 41 0
-46 51 11 41 0
-47 82 52 12 0
-47 82 52 42 0
-47 82 12 42 0
-47 52 12 42 0
-48 83 53 13 0
-48 83 53 43 0
-48 83 13 43 0
-48 53 13 43 0
-49 84 54 14 0
-49 84 54 44 0
-49 84 14 44 0
-49 54 14 44 0
-50 85 55 15 0
-50 85 55 45 0
-50 85 15 45 0
-50 55 15 45 0
-46 -81 -51 -11 0
-46 -81 -51 -41 0
-46 -81 -11 -41 0
-46 -51 -11 -41 0
-47 -82 -52 -12 0
-47 -82 -52 -42 0
-47 -82 -12 -42 0
-47 -52 -12 -42 0
-48 -83 -53 -13 0
-48 -83 -53 -43 0
-48 -83 -13 -43 0
-48 -53 -13 -43 0
-49 -84 -54 -14 0
-49 -84 -54 -44 0
-49 -84 -14 -44 0
-49 -54 -14 -44 0
-50 -85 -55 -15 0
-50 -85 -55 -45 0
-50 -85 -15 -45 0
-50 -55 -15 -45 0
-51 -281 0
-51 -282 0
-51 -283 0
-52 281 0
-52 -282 0
-52 -283 0
-53 -281 0
-53 282 0
-53 -283 0
-54 281 0
-54 282 0
-54 -283 0
-55 -281 0
-55 -282 0
-55 283 0
51 52 53 54 55 0
-51 86 56 16 0
-51 86 56 46 0
-51 86 16 46 0
-51 56 16 46 0
-52 87 57 17 0
-52 87 57 47 0
-52 87 17 47 0
-52 57 17 47 0
-53 88 58 18 0
-53 88 58 48 0
-53 88 18 48 0
-53 58 18 48 0
-54 89 59 19 0
-54 89 59 49 0
-54 89 19 49 0
-54 59 19 49 0
-55 90 60 20 0
-55 90 60 50 0
-55 90 20 50 0
-55 60 20 50 0
-51 -86 -56 -16 0
-51 -86 -56 -46 0
-51 -86 -16 -46 0
-51 -56 -16 -46 0
-52 -87 -57 -17 0
-52 -87 -57 -47 0
-52 -87 -17 -47 0
-52 -57 -17 -47 0
-53 -88 -58 -18 0
-53 -88 -58 -48 0
-53 -88 -18 -48 0
-53 -58 -18 -48 0
-54 -89 -59 -19 0
-54 -89 -59 -49 0
-54 -89 -19 -49 0
-54 -59 -19 -49 0
-55 -90 -60 -20 0
-55 -90 -60 -50 0
-55 -90 -20 -50 0
-55 -60 -20 -50 0
-56 -284 0
-56 -285 0
-56 -286 0
-57 284 0
-57 -285 0
-57 -286 0
-58 -284 0
-58 285 0
-58 -286 0
-59 284 0
-59 285 0
-59 -286 0
-60 -284 0
-60 -285 0
-60 286 0
56 57 58 59 60 0
-56 91 61 21 0
-56 91 61 51 0
-56 91 21 51 0
-56 61 21 51 0
-57 92 62 22 0
-57 92 62 52 0
-57 92 22 52 0
-57 62 22 52 0
-58 93 63 23 0
-58 93 63 53 0
-58 93 23 53 0
-58 63 23 53 0
-59 94 64 24 0
-59 94 64 54 0
-59 94 24 54 0
-59 64 24 54 0
-60 95 65 25 0
-60 95 65 55 0
-60 95 25 55 0
-60 65 25 55 0
-56 -91 -61 -21 0
-56 -91 -61 -51 0
-56 -91 -21 -51 0
-56 -61 -21 -51 0
-57 -92 -62 -22 0
-57 -92 -62 -52 0
-57 -92 -22 -52 0
-57 -62 -22 -52 0
-58 -93 -63 -23 0
-58 -93 -63 -53 0
-58 -93 -23 -53 0
-58 -63 -23 -53 0
-59 -94 -64 -24 0
-59 -94 -64 -54 0
-59 -94 -24 -54 0
-59 -64 -24 -54 0
-60 -95 -65 -25 0
-60 -95 -65 -55 0
-60 -95 -25 -55 0
-60 -65 -25 -55 0
63 0
-61 0
-62 0
-64 0
-65 0
98 68 28 58 0
-98 -68 0
-98 -28 0
-98 -58 0
-68 -28 0
-68 -58 0
-28 -58 0
-66 -290 0
-66 -291 0
-66 -292 0
-67 290 0
-67 -291 0
-67 -292 0
-68 -290 0
-68 291 0
-68 -292 0
-69 290 0
-69 291 0
-69 -292 0
-70 -290 0
-70 -291 0
-70 292 0
66 67 68 69 70 0
-66 101 61 0
-66 101 31 0
-66 61 31 0
-67 102 62 0
-67 102 32 0
-67 62 32 0
-68 103 63 0
-68 103 33 0
-68 63 33 0
-69 104 64 0
-69 104 34 0
-69 64 34 0
-70 105 65 0
-70 105 35 0
-70 65 35 0
-66 -101 -61 -31 0
-67 -102 -62 -32 0
-68 -103 -63 -33 0
-69 -104 -64 -34 0
-70 -105 -65 -35 0
-71 -293 0
-71 -294 0
-71 -295 0
-72 293 0
-72 -294 0
-72 -295 0
-73 -293 0
-73 294 0
-73 -295 0
-74 293 0
-74 294 0
-74 -295 0
-75 -293 0
-75 -294 0
-75 295 0
71 72 73 74 75 0
-71 106 76 0
-71 106 36 0
-71 76 36 0
-72 107 77 0
-72 107 37 0
-72 77 37 0
-73 108 78 0
-73 108 38 0
-73 78 38 0
-74 109 79 0
-74 109 39 0
-74 79 39 0
-75 110 80 0
-75 110 40 0
-75 80 40 0
-71 -106 -76 -36 0
-72 -107 -77 -37 0
-73 -108 -78 -38 0
-74 -109 -79 -39 0
-75 -110 -80 -40 0
78 0
-76 0
-77 0
-79 0
-80 0
113 83 43 73 0
-113 -83 0
-113 -43 0
-113 -73 0
-83 -43 0
-83 -73 0
-43 -73 0
-81 -299 0
-81 -300 0
-81 -301 0
-82 299 0
-82 -300 0
-82 -301 0
-83 -299 0
-83 300 0
-83 -301 0
-84 299 0
-84 300 0
-84 -301 0
-85 -299 0
-85 -300 0
-85 301 0
81 82 83 84 85 0
-81 116 86 46 0
-81 116 86 76 0
-81 116 46 76 0
-81 86 46 76 0
-82 117 87 47 0
-82 117 87 77 0
-82 117 47 77 0
-82 87 47 77 0
-83 118 88 48 0
-83 118 88 78 0
-83 118 48 78 0
-83 88 48 78 0
-84 119 89 49 0
-84 119 89 79 0
-84 119 49 79 0
-84 89 49 79 0
-85 120 90 50 0
-85 120 90 80 0
-85 120 50 80 0
-85 90 50 80 0
-81 -116 -86 -46 0
-81 -116 -86 -76 0
-81 -116 -46 -76 0
-81 -86 -46 -76 0
-82 -117 -87 -47 0
-82 -117 -87 -77 0
-82 -117 -47 -77 0
-82 -87 -47 -77 0
-83 -118 -88 -48 0
-83 -118 -88 -78 0
-83 -118 -48 -78 0
-83 -88 -48 -78 0
-84 -119 -89 -49 0
-84 -119 -89 -79 0
-84 -119 -49 -79 0
-84 -89 -49 -79 0
-85 -120 -90 -50 0
-85 -120 -90 -80 0
-85 -120 -50 -80 0
-85 -90 -50 -80 0
-86 -302 0
-86 -303 0
-86 -304 0
-87 302 0
-87 -303 0
-87 -304 0
-88 -302 0
-88 303 0
-88 -304 0
-89 302 0
-89 303 0
-89 -304 0
-90 -302 0
-90 -303 0
-90 304 0
86 87 88 89 90 0
-86 121 91 51 0
-86 121 91 81 0
-86 121 51 81 0
-86 91 51 81 0
-87 122 92 52 0
-87 122 92 82 0
-87 122 52 82 0
-87 92 52 82 0
-88 123 93 53 0
-88 123 93 83 0
-88 123 53 83 0
-88 93 53 83 0
-89 124 94 54 0
-89 124 94 84 0
-89 124 54 84 0
-89 94 54 84 0
-90 125 95 55 0
-90 125 95 85 0
-90 125 55 85 0
-90 95 55 85 0
-86 -121 -91 -51 0
-86 -121 -91 -81 0
-86 -121 -51 -81 0
-86 -91 -51 -81 0
-87 -122 -92 -52 0
-87 -122 -92 -82 0
-87 -122 -52 -82 0
-87 -92 -52 -82 0
-88 -123 -93 -53 0
-88 -123 -93 -83 0
-88 -123 -53 -83 0
-88 -93 -53 -83 0
-89 -124 -94 -54 0
-89 -124 -94 -84 0
-89 -124 -54 -84 0
-89 -94 -54 -84 0
-90 -125 -95 -55 0
-90 -125 -95 -85 0
-90 -125 -55 -85 0
-90 -95 -55 -85 0
-91 -305 0
-91 -306 0
-91 -307 0
-92 305 0
-92 -306 0
-92 -307 0
-93 -305 0
-93 306 0
-93 -307 0
-94 305 0
-94 306 0
-94 -307 0
-95 -305 0
-95 -306 0
-95 307 0
91 92 93 94 95 0
-91 126 96 56 0
-91 126 96 86 0
-91 126 56 86 0
-91 96 56 86 0
-92 127 97 57 0
-92 127 97 87 0
-92 127 57 87 0
-92 97 57 87 0
-93 128 98 58 0
-93 128 98 88 0
-93 128 58 88 0
-93 98 58 88 0
-94 129 99 59 0
-94 129 99 89 0
-94 129 59 89 0
-94 99 59 89 0
-95 130 100 60 0
-95 130 100 90 0
-95 130 60 90 0
-95 100 60 90 0
-91 -126 -96 -56 0
-91 -126 -96 -86 0
-91 -126 -56 -86 0
-91 -96 -56 -86 0
-92 -127 -97 -57 0
-92 -127 -97 -87 0
-92 -127 -57 -87 0
-92 -97 -57 -87 0
-93 -128 -98 -58 0
-93 -128 -98 -88 0
-93 -128 -58 -88 0
-93 -98 -58 -88 0
-94 -129 -99 -59 0
-94 -129 -99 -89 0
-94 -129 -59 -89 0
-94 -99 -59 -89 0
-95 -130 -100 -60 0
-95 -130 -100 -90 0
-95 -130 -60 -90 0
-95 -100 -60 -90 0
97 0
-96 0
-98 0
-99 0
-100 0
132 102 62 92 0
-132 -102 0
-132 -62 0
-132 -92 0
-102 -62 0
-102 -92 0
-62 -92 0
-101 -311 0
-101 -312 0
-101 -313 0
-102 311 0
-102 -312 0
-102 -313 0
-103 -311 0
-103 312 0
-103 -313 0
-104 311 0
-104 312 0
-104 -313 0
-105 -311 0
-105 -312 0
-105 313 0
101 102 103 104 105 0
-101 136 96 0
-101 136 66 0
-101 96 66 0
-102 137 97 0
-102 137 67 0
-102 97 67 0
-103 138 98 0
-103 138 68 0
-103 98 68 0
-104 139 99 0
-104 139 69 0
-104 99 69 0
-105 140 100 0
-105 140 70 0
-105 100 70 0
-101 -136 -96 -66 0
-102 -137 -97 -67 0
-103 -138 -98 -68 0
-104 -139 -99 -69 0
-105 -140 -100 -70 0
-106 -314 0
-106 -315 0
-106 -316 0
-107 314 0
-107 -315 0
-107 -316 0
-108 -314 0
-108 315 0
-108 -316 0
-109 314 0
-109 315 0
-109 -316 0
-110 -314 0
-110 -315 0
-110 316 0
106 107 108 109 110 0
-106 141 111 0
-106 141 71 0
-106 111 71 0
-107 142 112 0
-107 142 72 0
-107 112 72 0
-108 143 113 0
-108 143 73 0
-108 113 73 0
-109 144 114 0
-109 144 74 0
-109 114 74 0
-110 145 115 0
-110 145 75 0
-110 115 75 0
-106 -141 -111 -71 0
-107 -142 -112 -72 0
-108 -143 -113 -73 0
-109 -144 -114 -74 0
-110 -145 -115 -75 0
111 0
-112 0
-113 0
-114 0
-115 0
146 116 76 106 0
-146 -116 0
-146 -76 0
-146 -106 0
-116 -76 0
-116 -106 0
-76 -106 0
119 0
-116 0
-117 0
-118 0
-120 0
154 124 84 114 0
-154 -124 0
-154 -84 0
-154 -114 0
-124 -84 0
-124 -114 0
-84 -114 0
-121 -323 0
-121 -324 0
-121 -325 0
-122 323 0
-122 -324 0
-122 -325 0
-123 -323 0
-123 324 0
-123 -325 0
-124 323 0
-124 324 0
-124 -325 0
-125 -323 0
-125 -324 0
-125 325 0
121 122 123 124 125 0
-121 156 126 86 0
-121 156 126 116 0
-121 156 86 116 0
-121 126 86 116 0
-122 157 127 87 0
-122 157 127 117 0
-122 157 87 117 0
-122 127 87 117 0
-123 158 128 88 0
-123 158 128 118 0
-123 158 88 118 0
-123 128 88 118 0
-124 159 129 89 0
-124 159 129 119 0
-124 159 89 119 0
-124 129 89 119 0
-125 160 130 90 0
-125 160 130 120 0
-125 160 90 120 0
-125 130 90 120 0
-121 -156 -126 -86 0
-121 -156 -126 -116 0
-121 -156 -86 -116 0
-121 -126 -86 -116 0
-122 -157 -127 -87 0
-122 -157 -127 -117 0
-122 -157 -87 -117 0
-122 -127 -87 -117 0
-123 -158 -128 -88 0
-123 -158 -128 -118 0
-123 -158 -88 -118 0
-123 -128 -88 -118 0
-124 -159 -129 -89 0
-124 -159 -129 -119 0
-124 -159 -89 -119 0
-124 -129 -89 -119 0
-125 -160 -130 -90 0
-125 -160 -130 -120 0
-125 -160 -90 -120 0
-125 -130 -90 -120 0
-126 -326 0
-126 -327 0
-126 -328 0
-127 326 0
-127 -327 0
-127 -328 0
-128 -326 0
-128 327 0
-128 -328 0
-129 326 0
-129 327 0
-129 -328 0
-130 -326 0
-130 -327 0
-130 328 0
126 127 128 129 130 0
-126 161 131 91 0
-126 161 131 121 0
-126 161 91 121 0
-126 131 91 121 0
-127 162 132 92 0
-127 162 132 122 0
-127 162 92 122 0
-127 132 92 122 0
-128 163 133 93 0
-128 163 133 123 0
-128 163 93 123 0
-128 133 93 123 0
-129 164 134 94 0
-129 164 134 124 0
-129 164 94 124 0
-129 134 94 124 0
-130 165 135 95 0
-130 165 135 125 0
-130 165 95 125 0
-130 135 95 125 0
-126 -161 -131 -91 0
-126 -161 -131 -121 0
-126 -161 -91 -121 0
-126 -131 -91 -121 0
-127 -162 -132 -92 0
-127 -162 -132 -122 0
-127 -162 -92 -122 0
-127 -132 -92 -122 0
-128 -163 -133 -93 0
-128 -163 -133 -123 0
-128 -163 -93 -123 0
-128 -133 -93 -123 0
-129 -164 -134 -94 0
-129 -164 -134 -124 0
-129 -164 -94 -124 0
-129 -134 -94 -124 0
-130 -165 -135 -95 0
-130 -165 -135 -125 0
-130 -165 -95 -125 0
-130 -135 -95 -125 0
-131 -329 0
-131 -330 0
-131 -331 0
-132 329 0
-132 -330 0
-132 -331 0
-133 -329 0
-133 330 0
-133 -331 0
-134 329 0
-134 330 0
-134 -331 0
-135 -329 0
-135 -330 0
-135 331 0
131 132 133 134 135 0
-131 166 136 96 0
-131 166 136 126 0
-131 166 96 126 0
-131 136 96 126 0
-132 167 137 97 0
-132 167 137 127 0
-132 167 97 127 0
-132 137 97 127 0
-133 168 138 98 0
-133 168 138 128 0
-133 168 98 128 0
-133 138 98 128 0
-134 169 139 99 0
-134 169 139 129 0
-134 169 99 129 0
-134 139 99 129 0
-135 170 140 100 0
-135 170 140 130 0
-135 170 100 130 0
-135 140 100 130 0
-131 -166 -136 -96 0
-131 -166 -136 -126 0
-131 -166 -96 -126 0
-131 -136 -96 -126 0
-132 -167 -137 -97 0
-132 -167 -137 -127 0
-132 -167 -97 -127 0
-132 -137 -97 -127 0
-133 -168 -138 -98 0
-133 -168 -138 -128 0
-133 -168 -98 -128 0
-133 -138 -98 -128 0
-134 -169 -139 -99 0
-134 -169 -139 -129 0
-134 -169 -99 -129 0
-134 -139 -99 -129 0
-135 -170 -140 -100 0
-135 -170 -140 -130 0
-135 -170 -100 -130 0
-135 -140 -100 -130 0
-136 -332 0
-136 -333 0
-136 -334 0
-137 332 0
-137 -333 0
-137 -334 0
-138 -332 0
-138 333 0
-138 -334 0
-139 332 0
-139 333 0
-139 -334 0
-140 -332 0
-140 -333 0
-140 334 0
136 137 138 139 140 0
-136 171 131 0
-136 171 101 0
-136 131 101 0
-137 172 132 0
-137 172 102 0
-137 132 102 0
-138 173 133 0
-138 173 103 0
-138 133 103 0
-139 174 134 0
-139 174 104 0
-139 134 104 0
-140 175 135 0
-140 175 105 0
-140 135 105 0
-136 -171 -131 -101 0
-137 -172 -132 -102 0
-138 -173 -133 -103 0
-139 -174 -134 -104 0
-140 -175 -135 -105 0
-141 -335 0
-141 -336 0
-141 -337 0
-142 335 0
-142 -336 0
-142 -337 0
-143 -335 0
-143 336 0
-143 -337 0
-144 335 0
-144 336 0
-144 -337 0
-145 -335 0
-145 -336 0
-145 337 0
141 142 143 144 145 0
-141 176 146 0
-141 176 106 0
-141 146 106 0
-142 177 147 0
-142 177 107 0
-142 147 107 0
-143 178 148 0
-143 178 108 0
-143 148 108 0
-144 179 149 0
-144 179 109 0
-144 149 109 0
-145 180 150 0
-145 180 110 0
-145 150 110 0
-141 -176 -146 -106 0
-142 -177 -147 -107 0
-143 -178 -148 -108 0
-144 -179 -149 -109 0
-145 -180 -150 -110 0
149 0
-146 0
-147 0
-148 0
-150 0
184 154 114 144 0
-184 -154 0
-184 -114 0
-184 -144 0
-154 -114 0
-154 -144 0
-114 -144 0
155 0
-151 0
-152 0
-153 0
-154 0
190 160 120 150 0
-190 -160 0
-190 -120 0
-190 -150 0
-160 -120 0
-160 -150 0
-120 -150 0
-156 -344 0
-156 -345 0
-156 -346 0
-157 344 0
-157 -345 0
-157 -346 0
-158 -344 0
-158 345 0
-158 -346 0
-159 344 0
-159 345 0
-159 -346 0
-160 -344 0
-160 -345 0
-160 346 0
156 157 158 159 160 0
-156 191 161 121 0
-156 191 161 151 0
-156 191 121 151 0
-156 161 121 151 0
-157 192 162 122 0
-157 192 162 152 0
-157 192 122 152 0
-157 162 122 152 0
-158 193 163 123 0
-158 193 163 153 0
-158 193 123 153 0
-158 163 123 153 0
-159 194 164 124 0
-159 194 164 154 0
-159 194 124 154 0
-159 164 124 154 0
-160 195 165 125 0
-160 195 165 155 0
-160 195 125 155 0
-160 165 125 155 0
-156 -191 -161 -121 0
-156 -191 -161 -151 0
-156 -191 -121 -151 0
-156 -161 -121 -151 0
-157 -192 -162 -122 0
-157 -192 -162 -152 0
-157 -192 -122 -152 0
-157 -162 -122 -152 0
-158 -193 -163 -123 0
-158 -193 -163 -153 0
-158 -193 -123 -153 0
-158 -163 -123 -153 0
-159 -194 -164 -124 0
-159 -194 -164 -154 0
-159 -194 -124 -154 0
-159 -164 -124 -154 0
-160 -195 -165 -125 0
-160 -195 -165 -155 0
-160 -195 -125 -155 0
-160 -165 -125 -155 0
165 0
-161 0
-162 0
-163 0
-164 0
200 170 130 160 0
-200 -170 0
-200 -130 0
-200 -160 0
-170 -130 0
-170 -160 0
-130 -160 0
-166 -350 0
-166 -351 0
-166 -352 0
-167 350 0
-167 -351 0
-167 -352 0
-168 -350 0
-168 351 0
-168 -352 0
-169 350 0
-169 351 0
-169 -352 0
-170 -350 0
-170 -351 0
-170 352 0
166 167 168 169 170 0
-166 201 171 131 0
-166 201 171 161 0
-166 201 131 161 0
-166 171 131 161 0
-167 202 172 132 0
-167 202 172 162 0
-167 202 132 162 0
-167 172 132 162 0
-168 203 173 133 0
-168 203 173 163 0
-168 203 133 163 0
-168 173 133 163 0
-169 204 174 134 0
-169 204 174 164 0
-169 204 134 164 0
-169 174 134 164 0
-170 205 175 135 0
-170 205 175 165 0
-170 205 135 165 0
-170 175 135 165 0
-166 -201 -171 -131 0
-166 -201 -171 -161 0
-166 -201 -131 -161 0
-166 -171 -131 -161 0
-167 -202 -172 -132 0
-167 -202 -172 -162 0
-167 -202 -132 -162 0
-167 -172 -132 -162 0
-168 -203 -173 -133 0
-168 -203 -173 -163 0
-168 -203 -133 -163 0
-168 -173 -133 -163 0
-169 -204 -174 -134 0
-169 -204 -174 -164 0
-169 -204 -134 -164 0
-169 -174 -134 -164 0
-170 -205 -175 -135 0
-170 -205 -175 -165 0
-170 -205 -135 -165 0
-170 -175 -135 -165 0
-171 -353 0
-171 -354 0
-171 -355 0
-172 353 0
-172 -354 0
-172 -355 0
-173 -353 0
-173 354 0
-173 -355 0
-174 353 0
-174 354 0
-174 -355 0
-175 -353 0
-175 -354 0
-175 355 0
171 172 173 174 175 0
-171 206 166 0
-171 206 136 0
-171 166 136 0
-172 207 167 0
-172 207 137 0
-172 167 137 0
-173 208 168 0
-173 208 138 0
-173 168 138 0
-174 209 169 0
-174 209 139 0
-174 169 139 0
-175 210 170 0
-175 210 140 0
-175 170 140 0
-171 -206 -166 -136 0
-172 -207 -167 -137 0
-173 -208 -168 -138 0
-174 -209 -169 -139 0
-175 -210 -170 -140 0
-176 -356 0
-176 -357 0
-176 -358 0
-177 356 0
-177 -357 0
-177 -358 0
-178 -356 0
-178 357 0
-178 -358 0
-179 356 0
-179 357 0
-179 -358 0
-180 -356 0
-180 -357 0
-180 358 0
176 177 178 179 180 0
-176 211 181 0
-176 211 141 0
-176 181 141 0
-177 212 182 0
-177 212 142 0
-177 182 142 0
-178 213 183 0
-178 213 143 0
-178 183 143 0
-179 214 184 0
-179 214 144 0
-179 184 144 0
-180 215 185 0
-180 215 145 0
-180 185 145 0
-176 -211 -181 -141 0
-177 -212 -182 -142 0
-178 -213 -183 -143 0
-179 -214 -184 -144 0
-180 -215 -185 -145 0
-181 -359 0
-181 -360 0
-181 -361 0
-182 359 0
-182 -360 0
-182 -361 0
-183 -359 0
-183 360 0
-183 -361 0
-184 359 0
-184 360 0
-184 -361 0
-185 -359 0
-185 -360 0
-185 361 0
181 182 183 184 185 0
-181 216 186 146 0
-181 216 186 176 0
-181 216 146 176 0
-181 186 146 176 0
-182 217 187 147 0
-182 217 187 177 0
-182 217 147 177 0
-182 187 147 177 0
-183 218 188 148 0
-183 218 188 178 0
-183 218 148 178 0
-183 188 148 178 0
-184 219 189 149 0
-184 219 189 179 0
-184 219 149 179 0
-184 189 149 179 0
-185 220 190 150 0
-185 220 190 180 0
-185 220 150 180 0
-185 190 150 180 0
-181 -216 -186 -146 0
-181 -216 -186 -176 0
-181 -216 -146 -176 0
-181 -186 -146 -176 0
-182 -217 -187 -147 0
-182 -217 -187 -177 0
-182 -217 -147 -177 0
-182 -187 -147 -177 0
-183 -218 -188 -148 0
-183 -218 -188 -178 0
-183 -218 -148 -178 0
-183 -188 -148 -178 0
-184 -219 -189 -149 0
-184 -219 -189 -179 0
-184 -219 -149 -179 0
-184 -189 -149 -179 0
-185 -220 -190 -150 0
-185 -220 -190 -180 0
-185 -220 -150 -180 0
-185 -190 -150 -180 0
-186 -362 0
-186 -363 0
-186 -364 0
-187 362 0
-187 -363 0
-187 -364 0
-188 -362 0
-188 363 0
-188 -364 0
-189 362 0
-189 363 0
-189 -364 0
-190 -362 0
-190 -363 0
-190 364 0
186 187 188 189 190 0
-186 221 191 151 0
-186 221 191 181 0
-186 221 151 181 0
-186 191 151 181 0
-187 222 192 152 0
-187 222 192 182 0
-187 222 152 182 0
-187 192 152 182 0
-188 223 193 153 0
-188 223 193 183 0
-188 223 153 183 0
-188 193 153 183 0
-189 224 194 154 0
-189 224 194 184 0
-189 224 154 184 0
-189 194 154 184 0
-190 225 195 155 0
-190 225 195 185 0
-190 225 155 185 0
-190 195 155 185 0
-186 -221 -191 -151 0
-186 -221 -191 -181 0
-186 -221 -151 -181 0
-186 -191 -151 -181 0
-187 -222 -192 -152 0
-187 -222 -192 -182 0
-187 -222 -152 -182 0
-187 -192 -152 -182 0
-188 -223 -193 -153 0
-188 -223 -193 -183 0
-188 -223 -153 -183 0
-188 -193 -153 -183 0
-189 -224 -194 -154 0
-189 -224 -194 -184 0
-189 -224 -154 -184 0
-189 -194 -154 -184 0
-190 -225 -195 -155 0
-190 -225 -195 -185 0
-190 -225 -155 -185 0
-190 -195 -155 -185 0
-191 -365 0
-191 -366 0
-191 -367 0
-192 365 0
-192 -366 0
-192 -367 0
-193 -365 0
-193 366 0
-193 -367 0
-194 365 0
-194 366 0
-194 -367 0
-195 -365 0
-195 -366 0
-195 367 0
191 192 193 194 195 0
-191 226 196 156 0
-191 226 196 186 0
-191 226 156 186 0
-191 196 156 186 0
-192 227 197 157 0
-192 227 197 187 0
-192 227 157 187 0
-192 197 157 187 0
-193 228 198 158 0
-193 228 198 188 0
-193 228 158 188 0
-193 198 158 188 0
-194 229 199 159 0
-194 229 199 189 0
-194 229 159 189 0
-194 199 159 189 0
-195 230 200 160 0
-195 230 200 190 0
-195 230 160 190 0
-195 200 160 190 0
-191 -226 -196 -156 0
-191 -226 -196 -186 0
-191 -226 -156 -186 0
-191 -196 -156 -186 0
-192 -227 -197 -157 0
-192 -227 -197 -187 0
-192 -227 -157 -187 0
-192 -197 -157 -187 0
-193 -228 -198 -158 0
-193 -228 -198 -188 0
-193 -228 -158 -188 0
-193 -198 -158 -188 0
-194 -229 -199 -159 0
-194 -229 -199 -189 0
-194 -229 -159 -189 0
-194 -199 -159 -189 0
-195 -230 -200 -160 0
-195 -230 -200 -190 0
-195 -230 -160 -190 0
-195 -200 -160 -190 0
-196 -368 0
-196 -369 0
-196 -370 0
-197 368 0
-197 -369 0
-197 -370 0
-198 -368 0
-198 369 0
-198 -370 0
-199 368 0
-199 369 0
-199 -370 0
-200 -368 0
-200 -369 0
-200 370 0
196 197 198 199 200 0
-196 231 201 161 0
-196 231 201 191 0
-196 231 161 191 0
-196 201 161 191 0
-197 232 202 162 0
-197 232 202 192 0
-197 232 162 192 0
-197 202 162 192 0
-198 233 203 163 0
-198 233 203 193 0
-198 233 163 193 0
-198 203 163 193 0
-199 234 204 164 0
-199 234 204 194 0
-199 234 164 194 0
-199 204 164 194 0
-200 235 205 165 0
-200 235 205 195 0
-200 235 165 195 0
-200 205 165 195 0
-196 -231 -201 -161 0
-196 -231 -201 -191 0
-196 -231 -161 -191 0
-196 -201 -161 -191 0
-197 -232 -202 -162 0
-197 -232 -202 -192 0
-197 -232 -162 -192 0
-197 -202 -162 -192 0
-198 -233 -203 -163 0
-198 -233 -203 -193 0
-198 -233 -163 -193 0
-198 -203 -163 -193 0
-199 -234 -204 -164 0
-199 -234 -204 -194 0
-199 -234 -164 -194 0
-199 -204 -164 -194 0
-200 -235 -205 -165 0
-200 -235 -205 -195 0
-200 -235 -165 -195 0
-200 -205 -165 -195 0
-201 -371 0
-201 -372 0
-201 -373 0
-202 371 0
-202 -372 0
-202 -373 0
-203 -371 0
-203 372 0
-203 -373 0
-204 371 0
-204 372 0
-204 -373 0
-205 -371 0
-205 -372 0
-205 373 0
201 202 203 204 205 0
-201 236 206 166 0
-201 236 206 196 0
-201 236 166 196 0
-201 206 166 196 0
-202 237 207 167 0
-202 237 207 197 0
-202 237 167 197 0
-202 207 167 197 0
-203 238 208 168 0
-203 238 208 198 0
-203 238 168 198 0
-203 208 168 198 0
-204 239 209 169 0
-204 239 209 199 0
-204 239 169 199 0
-204 209 169 199 0
-205 240 210 170 0
-205 240 210 200 0
-205 240 170 200 0
-205 210 170 200 0
-201 -236 -206 -166 0
-201 -236 -206 -196 0
-201 -236 -166 -196 0
-201 -206 -166 -196 0
-202 -237 -207 -167 0
-202 -237 -207 -197 0
-202 -237 -167 -197 0
-202 -207 -167 -197 0
-203 -238 -208 -168 0
-203 -238 -208 -198 0
-203 -238 -168 -198 0
-203 -208 -168 -198 0
-204 -239 -209 -169 0
-204 -239 -209 -199 0
-204 -239 -169 -199 0
-204 -209 -169 -199 0
-205 -240 -210 -170 0
-205 -240 -210 -200 0
-205 -240 -170 -200 0
-205 -210 -170 -200 0
-206 -374 0
-206 -375 0
-206 -376 0
-207 374 0
-207 -375 0
-207 -376 0
-208 -374 0
-208 375 0
-208 -376 0
-209 374 0
-209 375 0
-209 -376 0
-210 -374 0
-210 -375 0
-210 376 0
206 207 208 209 210 0
-206 241 201 0
-206 241 171 0
-206 201 171 0
-207 242 202 0
-207 242 172 0
-207 202 172 0
-208 243 203 0
-208 243 173 0
-208 203 173 0
-209 244 204 0
-209 244 174 0
-209 204 174 0
-210 245 205 0
-210 245 175 0
-210 205 175 0
-206 -241 -201 -171 0
-207 -242 -202 -172 0
-208 -243 -203 -173 0
-209 -244 -204 -174 0
-210 -245 -205 -175 0
-211 -377 0
-211 -378 0
-211 -379 0
-212 377 0
-212 -378 0
-212 -379 0
-213 -377 0
-213 378 0
-213 -379 0
-214 377 0
-214 378 0
-214 -379 0
-215 -377 0
-215 -378 0
-215 379 0
211 212 213 214 215 0
-211 176 0
-211 216 0
-212 177 0
-212 217 0
-213 178 0
-213 218 0
-214 179 0
-214 219 0
-215 180 0
-215 220 0
-216 -380 0
-216 -381 0
-216 -382 0
-217 380 0
-217 -381 0
-217 -382 0
-218 -380 0
-218 381 0
-218 -382 0
-219 380 0
-219 381 0
-219 -382 0
-220 -380 0
-220 -381 0
-220 382 0
216 217 218 219 220 0
-216 181 221 0
-216 181 211 0
-216 221 211 0
-217 182 222 0
-217 182 212 0
-217 222 212 0
-218 183 223 0
-218 183 213 0
-218 223 213 0
-219 184 224 0
-219 184 214 0
-219 224 214 0
-220 185 225 0
-220 185 215 0
-220 225 215 0
-216 -181 -221 -211 0
-217 -182 -222 -212 0
-218 -183 -223 -213 0
-219 -184 -224 -214 0
-220 -185 -225 -215 0
-221 -383 0
-221 -384 0
-221 -385 0
-222 383 0
-222 -384 0
-222 -385 0
-223 -383 0
-223 384 0
-223 -385 0
-224 383 0
-224 384 0
-224 -385 0
-225 -383 0
-225 -384 0
-225 385 0
221 222 223 224 225 0
-221 186 226 0
-221 186 216 0
-221 226 216 0
-222 187 227 0
-222 187 217 0
-222 227 217 0
-223 188 228 0
-223 188 218 0
-223 228 218 0
-224 189 229 0
-224 189 219 0
-224 229 219 0
-225 190 230 0
-225 190 220 0
-225 230 220 0
-221 -186 -226 -216 0
-222 -187 -227 -217 0
-223 -188 -228 -218 0
-224 -189 -229 -219 0
-225 -190 -230 -220 0
-226 -386 0
-226 -387 0
-226 -388 0
-227 386 0
-227 -387 0
-227 -388 0
-228 -386 0
-228 387 0
-228 -388 0
-229 386 0
-229 387 0
-229 -388 0
-230 -386 0
-230 -387 0
-230 388 0
226 227 228 229 230 0
-226 191 231 0
-226 191 221 0
-226 231 221 0
-227 192 232 0
-227 192 222 0
-227 232 222 0
-228 193 233 0
-228 193 223 0
-228 233 223 0
-229 194 234 0
-229 194 224 0
-229 234 224 0
-230 195 235 0
-230 195 225 0
-230 235 225 0
-226 -191 -231 -221 0
-227 -192 -232 -222 0
-228 -193 -233 -223 0
-229 -194 -234 -224 0
-230 -195 -235 -225 0
-231 -389 0
-231 -390 0
-231 -391 0
-232 389 0
-232 -390 0
-232 -391 0
-233 -389 0
-233 390 0
-233 -391 0
-234 389 0
-234 390 0
-234 -391 0
-235 -389 0
-235 -390 0
-235 391 0
231 232 233 234 235 0
-231 196 236 0
-231 196 226 0
-231 236 226 0
-232 197 237 0
-232 197 227 0
-232 237 227 0
-233 198 238 0
-233 198 228 0
-233 238 228 0
-234 199 239 0
-234 199 229 0
-234 239 229 0
-235 200 240 0
-235 200 230 0
-235 240 230 0
-231 -196 -236 -226 0
-232 -197 -237 -227 0
-233 -198 -238 -228 0
-234 -199 -239 -229 0
-235 -200 -240 -230 0
-236 -392 0
-236 -393 0
-236 -394 0
-237 392 0
-237 -393 0
-237 -394 0
-238 -392 0
-238 393 0
-238 -394 0
-239 392 0
-239 393 0
-239 -394 0
-240 -392 0
-240 -393 0
-240 394 0
236 237 238 239 240 0
-236 201 241 0
-236 201 231 0
-236 241 231 0
-237 202 242 0
-237 202 232 0
-237 242 232 0
-238 203 243 0
-238 203 233 0
-238 243 233 0
-239 204 244 0
-239 204 234 0
-239 244 234 0
-240 205 245 0
-240 205 235 0
-240 245 235 0
-236 -201 -241 -231 0
-237 -202 -242 -232 0
-238 -203 -243 -233 0
-239 -204 -244 -234 0
-240 -205 -245 -235 0
-241 -395 0
-241 -396 0
-241 -397 0
-242 395 0
-242 -396 0
-242 -397 0
-243 -395 0
-243 396 0
-243 -397 0
-244 395 0
-244 396 0
-244 -397 0
-245 -395 0
-245 -396 0
-245 397 0
241 242 243 244 245 0
-241 206 0
-241 236 0
-242 207 0
-242 237 0
-243 208 0
-243 238 0
-244 209 0
-244 239 0
-245 210 0
-245 240 0
36 46 51 56 66 0
71 81 86 91 101 0
11 46 81 186 221 0
16 51 86 121 156 191 226 0
12 47 82 187 222 0
17 52 87 122 157 192 227 0
57 92 127 197 232 0
13 48 83 188 223 0
18 53 88 123 158 193 228 0
58 93 128 198 233 0
20 55 90 125 160 195 230 0